# Solution for model r5_t18_m9_8
# Finished Task: 18 / 18
# Makespan: 567.0, Total Distance: 1019.0, Total Time: 0.0801
# R O S F
0 0 17 0.0 0.0
1 1 21 0.0 0.0
2 2 16 0.0 0.0
3 3 20 0.0 0.0
4 4 15 0.0 0.0
5 4 -1 488.0 524.0
6 0 19 366.0 391.0
7 3 8 352.0 376.0
8 3 11 409.0 448.0
9 1 -1 469.0 489.0
10 4 5 429.0 452.0
11 3 -1 533.0 564.0
12 0 -1 534.0 567.0
13 2 -1 418.0 449.0
14 1 9 391.0 418.0
15 4 22 250.0 273.0
16 2 13 250.0 288.0
17 0 6 179.0 218.0
18 0 12 492.0 513.0
19 0 18 449.0 482.0
20 3 7 278.0 305.0
21 1 14 218.0 250.0
22 4 10 318.0 354.0
